&bands
prefix = 'WSe2'
outdir = './'
filband = 'bands.dat'
lsym = .false.
/

